c Random generated cnf formula, satisfiable: true
p cnf 10 50
-5 1 3 0
-10 2 5 0
-6 3 -4 0
9 2 1 0
-9 4 7 0
-6 -2 5 0
10 -7 5 0
-9 6 3 0
4 1 -5 0
-5 7 -1 0
-9 6 -7 0
-10 9 -4 0
-3 -6 -9 0
7 4 8 0
10 2 7 0
6 -8 10 0
-8 4 -2 0
-5 8 4 0
10 6 -9 0
3 5 -2 0
6 -1 8 0
1 6 -10 0
8 -2 10 0
-1 -9 4 0
2 5 -6 0
-7 -10 1 0
-6 5 -9 0
7 3 -5 0
-7 6 -3 0
4 10 -5 0
2 -9 -10 0
1 5 -7 0
7 -4 3 0
-8 7 9 0
-9 7 10 0
5 -4 3 0
5 9 -4 0
-4 -10 9 0
10 1 -5 0
10 -6 -5 0
-6 -8 1 0
-6 -4 -3 0
3 9 -5 0
9 -1 8 0
-10 2 -1 0
9 -5 4 0
2 -9 -3 0
5 9 -2 0
5 -6 10 0
2 -1 -10 0
